
Gurobi 8.1.1 (win64, Python) logging started 08/07/19 14:00:28

Academic license - for non-commercial use only

Gurobi 8.1.1 (win64, Python) logging started 08/07/19 14:17:05

Academic license - for non-commercial use only

Gurobi 8.1.1 (win64, Python) logging started 08/07/19 14:19:46

Academic license - for non-commercial use only

Gurobi 8.1.1 (win64, Python) logging started 08/07/19 14:25:23

Academic license - for non-commercial use only

Gurobi 8.1.1 (win64, Python) logging started 08/07/19 14:26:31

Academic license - for non-commercial use only

Gurobi 8.1.1 (win64, Python) logging started 08/07/19 14:29:27

Academic license - for non-commercial use only

Gurobi 8.1.1 (win64, Python) logging started 08/07/19 14:38:09

Academic license - for non-commercial use only

Gurobi 8.1.1 (win64, Python) logging started 08/22/19 14:56:26

Academic license - for non-commercial use only

Gurobi 8.1.1 (win64, Python) logging started 08/22/19 14:56:42

Academic license - for non-commercial use only

Gurobi 8.1.1 (win64, Python) logging started 08/22/19 14:56:55

Academic license - for non-commercial use only
